(set-info :smt-lib-version 2.6)
(set-logic QF_FXP)
(set-info :source |ESBMC floating-point test cases contributed by Mikhail Ramalho.|)
(set-info :category "crafted")
(set-info :status unsat)
(declare-fun |c::main::main::1::x@1!0&0#1| () (_ SFXP 32 16))
(declare-fun |c::main::main::1::IN@1!0&0#0| () (_ SFXP 32 16))
(declare-fun |c::main::main::1::result@1!0&0#1| () (_ SFXP 32 16))
(declare-fun |goto_symex::guard@0!0&0#1| () Bool)
(declare-fun |execution_statet::guard_exec@0!0| () Bool)
(assert (= |c::main::main::1::IN@1!0&0#0| |c::main::main::1::x@1!0&0#1|))
(assert (let ((a!1 (sfxp.sub Saturated |c::main::main::1::x@1!0&0#1| (sfxp.div Saturated roundTowardPositive (sfxp.mul Saturated roundTowardPositive (sfxp.mul Saturated roundTowardPositive |c::main::main::1::x@1!0&0#1| |c::main::main::1::x@1!0&0#1|) |c::main::main::1::x@1!0&0#1|) (sfxp #x00060000 16)))) (a!2 (sfxp.mul Saturated roundTowardPositive (sfxp.mul Saturated roundTowardPositive (sfxp.mul Saturated roundTowardPositive (sfxp.mul Saturated roundTowardPositive |c::main::main::1::x@1!0&0#1| |c::main::main::1::x@1!0&0#1|) |c::main::main::1::x@1!0&0#1|) |c::main::main::1::x@1!0&0#1|) |c::main::main::1::x@1!0&0#1|))) (let ((a!3 (sfxp.add Saturated (sfxp.add Saturated a!1 (sfxp.div Saturated roundTowardPositive a!2 (sfxp #x00780000 16))) (sfxp.div Saturated roundTowardPositive (sfxp.mul Saturated roundTowardPositive (sfxp.mul Saturated roundTowardPositive a!2 |c::main::main::1::x@1!0&0#1|) |c::main::main::1::x@1!0&0#1|) (sfxp #x13b00000 16))))) (= a!3 |c::main::main::1::result@1!0&0#1|))))
(assert (let ((a!1 (and (sfxp.leq |c::main::main::1::result@1!0&0#1| (sfxp #x00011999 16)) (sfxp.geq |c::main::main::1::result@1!0&0#1| (sfxp.neg (sfxp #x00011999 16)))))) (= (not (not (not a!1))) |goto_symex::guard@0!0&0#1|)))
(assert (let ((a!1 (and (sfxp.gt |c::main::main::1::IN@1!0&0#0| (sfxp.neg (sfxp #x0001921f 16))) (sfxp.lt |c::main::main::1::IN@1!0&0#0| (sfxp #x0001921f 16))))) (let ((a!2 (=> (and a!1 (not (not |goto_symex::guard@0!0&0#1|))) false))) (not (=> (and true a!1) (=> |execution_statet::guard_exec@0!0| a!2))))))
(check-sat)
(exit)
